interdiction/MCDM/NO_CORR/GEN_FROM_60/16_ITEMS_1000_GEN/K5016W20.KNP.mps
NAME          BLANK   
ROWS
 N  OBJROW
 L  R0000000
COLUMNS
    C0000000  OBJROW     -852.         R0000000  368.        
    C0000001  OBJROW     -644.         R0000000  352.        
    C0000002  OBJROW     -159.         R0000000  914.        
    C0000003  OBJROW     -371.         R0000000  484.        
    C0000004  OBJROW     -840.         R0000000  821.        
    C0000005  OBJROW     -81.          R0000000  890.        
    C0000006  OBJROW     -369.         R0000000  954.        
    C0000007  OBJROW     -281.         R0000000  866.        
    C0000008  OBJROW     -281.         R0000000  933.        
    C0000009  OBJROW     -938.         R0000000  511.        
    C0000010  OBJROW     -352.         R0000000  515.        
    C0000011  OBJROW     -438.         R0000000  137.        
    C0000012  OBJROW     -487.         R0000000  7.          
    C0000013  OBJROW     -945.         R0000000  600.        
    C0000014  OBJROW     -814.         R0000000  892.        
    C0000015  OBJROW     -733.         R0000000  719.        
RHS
    RHS       R0000000  15098.      
BOUNDS
 BV BOUND     C0000000  1.          
 BV BOUND     C0000001  1.          
 BV BOUND     C0000002  1.          
 BV BOUND     C0000003  1.          
 BV BOUND     C0000004  1.          
 BV BOUND     C0000005  1.          
 BV BOUND     C0000006  1.          
 BV BOUND     C0000007  1.          
 BV BOUND     C0000008  1.          
 BV BOUND     C0000009  1.          
 BV BOUND     C0000010  1.          
 BV BOUND     C0000011  1.          
 BV BOUND     C0000012  1.          
 BV BOUND     C0000013  1.          
 BV BOUND     C0000014  1.          
 BV BOUND     C0000015  1.          
ENDATA
