interdiction/MCDM/NO_CORR/GEN_FROM_60/16_ITEMS_1000_GEN/K5016W20.KNP.txt
N 16
M 17
LC 16
LC 17
LC 18
LC 19
LC 20
LC 21
LC 22
LC 23
LC 24
LC 25
LC 26
LC 27
LC 28
LC 29
LC 30
LC 31
LR 1
LR 2
LR 3
LR 4
LR 5
LR 6
LR 7
LR 8
LR 9
LR 10
LR 11
LR 12
LR 13
LR 14
LR 15
LR 16
LR 17
LO -852
LO -644
LO -159
LO -371
LO -840
LO -81
LO -369
LO -281
LO -281
LO -938
LO -352
LO -438
LO -487
LO -945
LO -814
LO -733
OS 1
IC 746
IC 24
IC 107
IC 418
IC 784
IC 956
IC 388
IC 654
IC 651
IC 102
IC 98
IC 114
IC 232
IC 528
IC 444
IC 39
IB 3143
